2253.77 0
0 38 48 47 36 37 46 59 53 0
0 95 4 86 81 82 84 87 50 66 0
0 12 11 23 99 17 0
0 1 2 10 98 94 88 91 96 92 20 19 0
0 57 62 63 43 35 45 54 32 49 68 64 0
0 3 5 9 8 6 100 7 85 83 65 27 21 0
0 60 29 44 58 30 67 28 41 39 40 33 31 34 42 56 51 61 0
0 15 16 13 25 0
0 26 75 74 73 24 0
0 78 77 69 71 72 70 14 0
0 97 93 89 90 18 22 80 79 76 55 52 0